238 300 239 243 230 212 230 245 222 237 203 245 207 244 236 239 202 223 235 237 233 214 242 225 210 236 200 245 212 212 222 211 207 211 228 211 223 232 231 219 218 234 238 200 201 248 239 203 220 248 214 228 211 230 202 247 240 228 241 201 240 237 237 221 248 214 232 245 247 212 238 214 220 250 214 222 248 228 250 242 225 214 244 211 218 221 232 208 249 247 209 212 233 221 233 205 235 239 250 231 201 212 220 221 211 208 217 233 236 217 225 236 205 218 221 223 213 202 231 211 249 215 248 231 236 230 236 220 244 210 226 245 222 220 240 207 228 207 241 239 249 240 249 203 207 219 200 246 246 232 206 244 221 204 249 206 208 235 200 201 219 200 220 215 220 235 222 223 216 212 236 214 201 234 217 234 227 217 229 222 223 209 215 244 238 238 224 221 247 225 222 215 225 217 230 220 201 202 243 217 239 228 205 241 236 222 249 237 213 227 208 211 210 248 204 249 235 203 219 232 202 215 247 227 232 201 221 207 203 238 249 216 215 203 206 225 250 204 211 213 